; benchmark
(set-info :status unknown)
(declare-fun c_3_1 () Int)
(declare-fun c_3_0 () Int)
(declare-fun c_2_1 () Int)
(declare-fun c_2_0 () Int)
(declare-fun c_1_1 () Int)
(declare-fun c_1_0 () Int)
(declare-fun c_0_1 () Int)
(declare-fun c_0_0 () Int)
(assert
 (let ((?x53 (* (- (+ c_3_0 5) c_3_0) (- (+ c_3_1 5) c_3_1))))
 (let ((?x50 (* (- (+ c_2_0 5) c_2_0) (- (+ c_2_1 3) c_2_1))))
 (let ((?x47 (* (- (+ c_1_0 3) c_1_0) (- (+ c_1_1 5) c_1_1))))
 (let ((?x44 (* (- (+ c_0_0 3) c_0_0) (- (+ c_0_1 3) c_0_1))))
 (let (($x160 (= (+ ?x44 ?x47 ?x50 ?x53) 64)))
 (let (($x157 (or (and (= (+ c_0_0 3) 8) (= (+ c_0_1 3) 8)) (and (= (+ c_1_0 3) 8) (= (+ c_1_1 5) 8)) (and (= (+ c_2_0 5) 8) (= (+ c_2_1 3) 8)) (and (= (+ c_3_0 5) 8) (= (+ c_3_1 5) 8)))))
 (let (($x144 (or (and (= c_0_0 0) (= c_0_1 0)) (and (= c_1_0 0) (= c_1_1 0)) (and (= c_2_0 0) (= c_2_1 0)) (and (= c_3_0 0) (= c_3_1 0)))))
 (let (($x178 (or (and (distinct c_2_0 c_3_0) true) (and (distinct c_2_1 c_3_1) true))))
 (let (($x175 (or (and (distinct c_1_0 c_3_0) true) (and (distinct c_1_1 c_3_1) true))))
 (let (($x172 (or (and (distinct c_1_0 c_2_0) true) (and (distinct c_1_1 c_2_1) true))))
 (let (($x169 (or (and (distinct c_0_0 c_3_0) true) (and (distinct c_0_1 c_3_1) true))))
 (let (($x166 (or (and (distinct c_0_0 c_2_0) true) (and (distinct c_0_1 c_2_1) true))))
 (let (($x163 (or (and (distinct c_0_0 c_1_0) true) (and (distinct c_0_1 c_1_1) true))))
 (let (($x130 (or (<= (+ c_2_0 5) c_3_0) (<= (+ c_2_1 3) c_3_1) (<= (+ c_3_0 5) c_2_0) (<= (+ c_3_1 5) c_2_1))))
 (let (($x131 (and $x130)))
 (let (($x124 (or (<= (+ c_1_0 3) c_3_0) (<= (+ c_1_1 5) c_3_1) (<= (+ c_3_0 5) c_1_0) (<= (+ c_3_1 5) c_1_1))))
 (let (($x125 (and $x124)))
 (let (($x118 (or (<= (+ c_1_0 3) c_2_0) (<= (+ c_1_1 5) c_2_1) (<= (+ c_2_0 5) c_1_0) (<= (+ c_2_1 3) c_1_1))))
 (let (($x119 (and $x118)))
 (let (($x112 (or (<= (+ c_0_0 3) c_3_0) (<= (+ c_0_1 3) c_3_1) (<= (+ c_3_0 5) c_0_0) (<= (+ c_3_1 5) c_0_1))))
 (let (($x113 (and $x112)))
 (let (($x106 (or (<= (+ c_0_0 3) c_2_0) (<= (+ c_0_1 3) c_2_1) (<= (+ c_2_0 5) c_0_0) (<= (+ c_2_1 3) c_0_1))))
 (let (($x107 (and $x106)))
 (let (($x100 (or (<= (+ c_0_0 3) c_1_0) (<= (+ c_0_1 3) c_1_1) (<= (+ c_1_0 3) c_0_0) (<= (+ c_1_1 5) c_0_1))))
 (let (($x101 (and $x100)))
 (let (($x95 (and (>= (+ c_3_0 5) 5) (<= (+ c_3_0 5) 8) (>= (+ c_3_1 5) 5) (<= (+ c_3_1 5) 8))))
 (let (($x90 (and (>= (+ c_2_0 5) 5) (<= (+ c_2_0 5) 8) (>= (+ c_2_1 3) 3) (<= (+ c_2_1 3) 8))))
 (let (($x85 (and (>= (+ c_1_0 3) 3) (<= (+ c_1_0 3) 8) (>= (+ c_1_1 5) 5) (<= (+ c_1_1 5) 8))))
 (let (($x80 (and (>= (+ c_0_0 3) 3) (<= (+ c_0_0 3) 8) (>= (+ c_0_1 3) 3) (<= (+ c_0_1 3) 8))))
 (let (($x73 (<= c_3_1 3)))
 (let (($x72 (>= c_3_1 0)))
 (let (($x71 (<= c_3_0 3)))
 (let (($x70 (>= c_3_0 0)))
 (let (($x74 (and $x70 $x71 $x72 $x73)))
 (let (($x68 (<= c_2_1 5)))
 (let (($x67 (>= c_2_1 0)))
 (let (($x66 (<= c_2_0 3)))
 (let (($x65 (>= c_2_0 0)))
 (let (($x69 (and $x65 $x66 $x67 $x68)))
 (let (($x63 (<= c_1_1 3)))
 (let (($x62 (>= c_1_1 0)))
 (let (($x61 (<= c_1_0 5)))
 (let (($x60 (>= c_1_0 0)))
 (let (($x64 (and $x60 $x61 $x62 $x63)))
 (let (($x58 (<= c_0_1 5)))
 (let (($x57 (>= c_0_1 0)))
 (let (($x56 (<= c_0_0 5)))
 (let (($x55 (>= c_0_0 0)))
 (let (($x59 (and $x55 $x56 $x57 $x58)))
 (and $x59 $x64 $x69 $x74 $x80 $x85 $x90 $x95 $x101 $x107 $x113 $x119 $x125 $x131 $x163 $x166 $x169 $x172 $x175 $x178 $x144 $x157 $x160)))))))))))))))))))))))))))))))))))))))))))))))))))
(check-sat)
